p cnf 22 54
a 2 15 0
e 1 3 4 5 6 7 8 9 10 11 12 13 14 16 17 18 19 20 21 22 0
-4 -2 0
-4 -3 0
2 3 4 0
5 -1 0
5 -4 0
1 4 -5 0
-5 -1 -6 0
5 1 -6 0
-5 1 6 0
5 -1 6 0
8 -7 0
8 1 0
7 -1 -8 0
9 -6 0
9 -8 0
6 8 -9 0
-3 -2 -10 0
3 2 -10 0
-3 2 10 0
3 -2 10 0
-12 -10 0
-12 11 0
10 -11 12 0
15 -13 0
15 -14 0
13 14 -15 0
12 15 -16 0
-12 -15 -16 0
12 -15 16 0
-12 15 16 0
-9 16 -17 0
9 -16 -17 0
-9 -16 17 0
9 16 17 0
19 18 0
19 -13 0
-18 13 -19 0
20 -14 0
20 10 0
14 -10 -20 0
-19 -20 -21 0
19 20 -21 0
-19 20 21 0
19 -20 21 0
17 -21 -22 0
-17 21 -22 0
17 21 22 0
-17 -21 22 0
21 -17 2 -18 -20 0
5 3 2 11 -4 0
2 10 20 -15 -19 -14 16 0
14 18 0
-5 20 17 1 -19 -16 0
22 0
